0 1
0 2
0 3
0 4
0 5
0 6
0 7
0 8
0 9
1 4
1 10
2 5
3 5
4 11
4 12
4 13
4 5
4 14
4 15
5 16
5 17
5 6
5 7
8 10
9 18
11 19
11 14
12 20
13 21
14 22
14 23
14 24
14 25
14 21
14 26
15 22
16 17
17 27
18 28
19 20
23 26
24 26
25 26
26 29
26 30
26 31
26 32
26 33
27 28
29 34
30 33
31 35
32 36
32 37
33 34
33 35
33 38
33 37
33 39
35 40
35 39
36 41
38 42
40 43
41 44
42 44
43 45
43 46
45 47
46 48
46 47
48 49
48 50
49 51
49 52
49 53
50 51
52 54
53 55
54 56
55 57
55 58
55 59
56 60
57 59
58 61
58 62
58 63
58 64
58 65
58 66
58 67
58 68
58 69
58 70
58 71
58 59
58 72
58 73
59 74
60 75
61 70
62 76
63 77
64 78
64 79
64 66
64 67
64 68
64 80
64 81
64 82
64 83
64 84
65 66
67 85
67 86
67 76
67 87
67 88
67 80
67 84
69 89
70 90
70 91
70 77
71 74
72 92
72 93
72 94
73 95
73 96
75 97
75 98
75 99
76 88
76 87
78 100
79 80
81 101
82 102
82 103
83 85
86 104
89 105
90 106
91 107
91 101
92 93
93 108
93 94
93 109
93 110
93 111
93 95
93 105
95 112
96 112
97 113
98 114
98 115
98 116
98 113
99 117
100 104
101 118
101 119
102 120
103 120
103 121
103 122
106 123
107 119
108 109
109 124
110 125
110 126
110 127
110 128
110 129
110 130
110 131
110 132
111 133
114 134
114 135
114 136
114 137
114 138
114 139
114 140
114 141
114 115
114 142
114 143
116 117
118 123
120 144
121 144
122 145
124 130
125 146
126 133
127 147
127 148
127 149
127 150
127 151
127 152
127 153
127 154
127 155
128 129
128 156
130 131
132 157
134 141
135 158
135 159
135 160
135 161
135 162
136 162
136 163
137 140
138 160
139 164
140 165
140 142
141 166
141 167
141 164
141 168
141 169
143 163
145 146
147 149
147 170
147 151
148 152
150 154
151 171
151 172
151 173
151 170
151 174
151 175
151 155
151 176
152 177
153 172
154 178
156 179
157 178
158 180
159 162
161 165
166 167
167 180
168 181
168 182
169 183
169 184
169 185
169 186
169 187
169 188
169 189
169 190
169 191
169 192
169 193
169 194
169 195
171 196
171 197
171 198
171 199
171 200
171 201
171 202
171 203
171 204
171 205
171 206
171 207
171 208
171 209
171 210
171 211
171 212
171 213
171 214
171 215
171 174
171 216
171 217
171 218
171 219
171 220
173 174
174 176
175 215
177 221
177 222
179 223
179 224
181 225
181 226
181 182
183 227
184 194
184 228
184 229
184 230
185 190
186 231
186 189
186 191
186 232
187 190
188 230
190 233
190 234
190 235
190 236
190 237
190 232
190 238
191 239
191 240
191 192
192 241
192 240
193 242
193 243
193 244
193 245
193 246
193 247
193 248
193 249
195 250
195 251
196 252
197 253
197 254
197 255
197 256
197 257
197 258
197 259
197 260
197 261
197 262
197 263
197 264
197 265
197 266
197 267
197 268
197 269
197 270
197 271
197 272
197 216
197 273
198 274
198 275
198 276
199 277
200 278
200 207
200 279
201 280
202 203
203 281
203 269
204 282
204 283
205 284
205 285
205 286
205 219
205 287
206 288
206 289
207 278
207 290
207 291
207 279
208 275
208 252
209 262
210 292
211 261
212 293
213 294
214 295
217 296
217 297
217 218
217 298
218 296
218 299
218 300
218 301
218 302
220 303
220 304
220 290
220 305
221 286
221 306
221 222
221 307
223 224
224 308
224 309
224 310
224 311
224 282
224 312
225 313
225 314
226 315
226 229
226 313
226 314
227 249
228 316
229 316
229 317
231 318
233 319
234 320
234 321
235 236
235 322
237 323
238 324
239 241
242 325
242 326
242 327
242 328
242 245
242 329
242 330
242 331
242 332
242 333
242 334
243 335
244 246
244 247
245 328
246 336
246 337
246 338
248 339
250 251
251 340
253 341
254 273
255 272
256 342
257 267
258 343
259 344
260 266
260 345
263 346
263 347
264 348
264 349
265 350
267 351
268 344
268 352
269 281
270 277
271 353
271 354
271 305
271 355
272 356
272 357
273 358
274 275
275 359
275 360
275 361
275 362
275 357
275 363
276 362
280 364
282 312
282 310
282 365
282 366
282 283
284 285
284 294
287 307
288 361
289 293
291 367
292 368
295 367
297 298
297 301
299 300
300 369
300 370
300 371
300 372
300 373
302 374
302 375
302 376
303 377
304 378
304 379
306 307
308 310
309 366
311 365
315 380
317 381
318 322
319 343
320 382
320 383
320 321
323 384
324 385
324 386
325 326
326 387
326 388
326 389
326 329
327 390
330 391
331 392
332 343
333 387
334 393
334 394
335 336
335 339
335 395
336 395
337 396
338 396
338 397
338 398
340 399
340 400
341 343
342 349
343 401
343 402
343 390
343 403
343 404
345 405
346 406
346 407
347 352
348 408
348 409
350 410
351 411
351 356
353 355
354 377
355 412
358 413
359 360
359 414
361 414
361 363
364 415
364 416
368 374
369 371
369 417
370 418
371 419
372 420
372 421
373 422
373 420
373 421
374 375
374 376
378 379
378 423
380 381
382 383
382 424
382 425
384 426
385 427
386 428
388 429
389 430
391 431
392 432
393 394
394 433
397 398
397 432
399 434
400 434
401 424
402 435
403 436
404 431
405 411
406 437
407 438
408 439
409 440
410 441
412 442
412 443
413 441
415 444
416 445
416 446
416 438
417 447
418 447
419 422
419 448
422 449
422 450
422 451
422 452
423 442
424 453
425 454
426 455
427 456
428 457
428 458
428 459
429 460
430 461
433 462
434 458
435 463
435 464
436 465
437 466
439 467
439 468
440 469
441 470
442 443
444 471
445 471
446 472
448 449
450 473
450 474
450 475
450 476
450 467
450 452
451 477
453 454
455 478
456 479
457 458
458 459
460 480
461 463
462 480
463 464
465 481
466 472
467 482
467 468
469 483
470 484
473 485
474 486
475 487
476 482
477 485
478 488
479 489
481 490
483 486
483 491
484 492
486 487
486 491
488 493
489 494
490 495
490 496
492 496
493 497
494 498
495 496
497 498
